
Log started (V22.1.1.0) Mon Sep 16 16:43:42 2024


Problem 'deneme.lp' read.
Read time = 0.09 sec. (8.43 ticks)
Version identifier: 22.1.1.0 | 2022-11-28 | 9160aff4d
Found incumbent of value 160.000000 after 0.01 sec. (1.75 ticks)
Tried aggregator 2 times.
MIP Presolve eliminated 480 rows and 0 columns.
Aggregator did 15 substitutions.
Reduced MIP has 48154 rows, 305 columns, and 444385 nonzeros.
Reduced MIP has 305 binaries, 0 generals, 0 SOSs, and 0 indicators.
Presolve time = 0.18 sec. (177.70 ticks)
Probing time = 0.02 sec. (8.85 ticks)
Tried aggregator 1 time.
Detecting symmetries...
Reduced MIP has 48154 rows, 305 columns, and 444385 nonzeros.
Reduced MIP has 305 binaries, 0 generals, 0 SOSs, and 0 indicators.
Presolve time = 0.23 sec. (231.86 ticks)
Probing time = 0.01 sec. (8.81 ticks)
Clique table members: 255.
MIP emphasis: balance optimality and feasibility.
MIP search method: dynamic search.
Parallel mode: deterministic, using up to 8 threads.
Root relaxation solution time = 0.48 sec. (364.61 ticks)

        Nodes                                         Cuts/
   Node  Left     Objective  IInf  Best Integer    Best Bound    ItCnt     Gap

*     0+    0                          160.0000        0.0000           100.00%
*     0+    0                          100.0000        0.0000           100.00%
*     0+    0                           88.0000        0.0000           100.00%
*     0+    0                           83.0000        0.0000           100.00%
*     0+    0                           78.0000        0.0000           100.00%
      0     0        2.0319   275       78.0000        2.0319       15   97.39%
*     0+    0                           55.0000        2.0319            96.31%
      0     0        2.2801   268       55.0000     Fract: 80      307   95.85%
*     0+    0                           40.0000        2.2801            94.30%
      0     2        2.2801   268       40.0000        2.2801      307   94.30%
Elapsed time = 6.28 sec. (8466.74 ticks, tree = 0.02 MB, solutions = 7)
      1     3        2.4919   221       40.0000        2.2802     1101   94.30%
      3     3        7.5432   213       40.0000        2.2802     1910   94.30%
      4     4        7.5855   232       40.0000        2.2802     2014   94.30%
      6     5       13.7520   196       40.0000        7.5467     3789   81.13%
      7     6        8.6974   176       40.0000        7.5467     4649   81.13%
     11     5        8.4971   185       40.0000        7.5467     4133   81.13%
     12     6       14.2079   177       40.0000        7.5467     5025   81.13%
     13    12        8.9583   245       40.0000        8.2271     7502   79.43%
     15     9       15.1810   230       40.0000        8.2271     6048   79.43%
     24    20       10.5895   191       40.0000        8.4971    14514   78.76%
Elapsed time = 13.85 sec. (13744.96 ticks, tree = 0.78 MB, solutions = 7)
*    30    20      integral     0       16.0000        8.4971    16960   46.89%
     36    21       13.2440   240       16.0000        8.4971    14922   46.89%
     54     2        cutoff             16.0000        9.0696    25252   43.31%

Gomory fractional cuts applied:  5

Root node processing (before b&c):
  Real time             =    6.21 sec. (8418.75 ticks)
Parallel b&c, 8 threads:
  Real time             =   10.20 sec. (7534.28 ticks)
  Sync time (average)   =    2.70 sec.
  Wait time (average)   =    0.00 sec.
                          ------------
Total (root+branch&cut) =   16.41 sec. (15953.03 ticks)

Solution pool: 8 solutions saved.

MIP - Integer optimal solution:  Objective =  1.6000000000e+01
Solution time =   16.43 sec.  Iterations = 25645  Nodes = 55
Deterministic time = 15953.03 ticks  (971.09 ticks/sec)

